! Edited 04/01/2022
&CONTROL 
calculation = "scf", 
disk_io = 'low', 
etot_conv_thr = 1.0E-4, 
forc_conv_thr = 1.0D-3, 
outdir = "/scratch/bxp912", 
prefix = "feocta1d", 
pseudo_dir = "/rds/homes/b/bxp912/pp", 
restart_mode = 'from_scratch', 
tprnfor = .true., 
tstress = .true., 
/ 
&SYSTEM 
celldm(1) = 12.9381867, 
degauss = 0.04, 
ecutrho = 430, 
ecutwfc = 71, 
ibrav = 0, 
nbnd = 320, 
nat = 33, 
nspin = 2, 
ntyp = 3, 
occupations = 'smearing', 
smearing = 'mv', 
starting_magnetization(1) = 0.1, 
starting_magnetization(2) = -0.1, 
starting_magnetization(3) = -0.01, 
/ 
&ELECTRONS 
conv_thr = 1.0D-6, 
diagonalization = 'david', 
mixing_beta = 0.3, 
mixing_mode = 'local-TF',  
mixing_ndim = 10, 
/ 
&IONS 
ion_dynamics = 'bfgs', 
/ 
&CELL 
cell_dynamics = 'bfgs', 
cell_factor = 2.0, 
press = 0.0, 
/ 
ATOMIC_SPECIES 
Fe1 55.845 Fe.pbe-spn-kjpaw_psl.1.0.0.UPF 
Fe2 55.845 Fe.pbe-spn-kjpaw_psl.1.0.0.UPF 
Fe3 55.845 Fe.pbe-spn-kjpaw_psl.1.0.0.UPF 
ATOMIC_POSITIONS crystal
Fe3   0.25   0.25   0.25  
Fe1   0.0   0.0   0.0   
Fe2   0.25   0.25   0.0   
Fe1   0.25   0.0   0.25   
Fe2   0.0   0.25   0.25   
Fe1   0.0   0.0   0.5   
Fe2   0.25   0.25   0.5   
Fe1   0.25   0.0   0.75   
Fe2   0.0   0.25   0.75   
Fe1   0.0   0.5   0.0   
Fe2   0.25   0.75   0.0   
Fe1   0.25   0.5   0.25   
Fe2   0.0   0.75   0.25   
Fe1   0.0   0.5   0.5   
Fe2   0.25   0.75   0.5   
Fe1   0.25   0.5   0.75   
Fe2   0.0   0.75   0.75   
Fe1   0.5   0.0   0.0   
Fe2   0.75   0.25   0.0   
Fe1   0.75   0.0   0.25   
Fe2   0.5   0.25   0.25   
Fe1   0.5   0.0   0.5   
Fe2   0.75   0.25   0.5   
Fe1   0.75   0.0   0.75   
Fe2   0.5   0.25   0.75   
Fe1   0.5   0.5   0.0   
Fe2   0.75   0.75   0.0   
Fe1   0.75   0.5   0.25   
Fe2   0.5   0.75   0.25   
Fe1   0.5   0.5   0.5   
Fe2   0.75   0.75   0.5   
Fe1   0.75   0.5   0.75   
Fe2   0.5   0.75   0.75   
K_POINTS automatic
9 9 9 1 1 1  
CELL_PARAMETERS alat
1.0 0.0 0.0 
0.0 1.05447 0.0 
0.0 0.0 1.0
